120 150

60
49
41
53
53
57
52
40
43
43
43
54
48
48
50
57
58
49
44
54
52
54
50
46
52
43
52
56
52
51
43
51
41
46
55
51
52
58
59
50
42
53
48
51
49
60
44
54
52
41
50
60
52
50
52
46
54
57
40
52
52
48
50
48
49
52
41
49
49
45
56
57
44
52
48
56
58
49
50
58
54
46
44
46
54
50
43
51
45
52
44
57
54
52
53
50
54
40
47
52
60
60
42
46
60
56
41
52
52
49
49
44
54
41
44
43
53
60
42
53